RT is False
Default write of storage_offers_DA.csv just to have a file (but constraint should be inactive)
Reading model...
...model read.
creating competitive generators file...
...competitive generators recorded.
Loading data...
.. day-ahead data with real-time VRE data read.
Compiling instance...
...instance created.
Creating Offer Mitigation (model will solve as dispatch if TRUE)...
Solving...

Welcome to IBM(R) ILOG(R) CPLEX(R) Interactive Optimizer 12.9.0.0
  with Simplex, Mixed Integer & Barrier Optimizers
5725-A06 5725-A29 5724-Y48 5724-Y49 5724-Y54 5724-Y55 5655-Y21
Copyright IBM Corp. 1988, 2019.  All Rights Reserved.

Type 'help' for a list of available commands.
Type 'help' followed by a command name for more
information on commands.

CPLEX> Logfile 'cplex.log' closed.
Logfile 'C:\Users\llavin\Desktop\test919\logs\tmpiu3ktw97.cplex.log' open.
CPLEX> New value for parallel optimization mode: -1
CPLEX> New value for mixed integer optimality gap tolerance: 0.01
CPLEX> New value for integrality tolerance: 1e-09
CPLEX> New value for feasibility tolerance: 0.01
CPLEX> New value for deterministic time limit in ticks: 75000
CPLEX> Problem 'C:\Users\llavin\Desktop\test919\logs\tmpasfbz6w9.pyomo.lp' read.
Read time = 0.06 sec. (3.04 ticks)
CPLEX> Problem name         : C:\Users\llavin\Desktop\test919\logs\tmpasfbz6w9.pyomo.lp
Objective sense      : Minimize
Variables            :   26081  [Nneg: 1,  Box: 21616,  Free: 4464]
Objective nonzeros   :    2496
Linear constraints   :   27515  [Less: 14006,  Greater: 4416,  Equal: 9093]
  Nonzeros           :   89267
  RHS nonzeros       :   12270

Variables            : Min LB: -5000.000        Max UB: 1000000.       
Objective nonzeros   : Min   : 15.73158         Max   : 124.0997       
Linear constraints   :
  Nonzeros           : Min   : 0.8500000        Max   : 3000.000       
  RHS nonzeros       : Min   : 0.4083333        Max   : 5000.000       
CPLEX> CPXPARAM_Parallel                                -1
CPXPARAM_Simplex_Tolerances_Feasibility          0.01
CPXPARAM_DetTimeLimit                            75000
CPXPARAM_MIP_Tolerances_MIPGap                   0.01
CPXPARAM_MIP_Tolerances_Integrality              1.0000000000000001e-09
Parallel mode: opportunistic, using up to 32 threads for concurrent optimization.
Tried aggregator 1 time.
LP Presolve eliminated 21353 rows and 15463 columns.
Aggregator did 771 substitutions.
Reduced LP has 5391 rows, 9847 columns, and 31810 nonzeros.
Presolve time = 0.06 sec. (30.44 ticks)
Symmetry aggregator did 5563 additional substitutions.

Iteration log . . .
Iteration:     1   Dual objective     =             0.000000
Perturbation started.
Iteration:   101   Dual objective     =             0.000000
Iteration:   331   Dual objective     =             1.211998
Iteration:   579   Dual objective     =             1.725953
Iteration:   829   Dual objective     =             1.866287
Iteration:  1023   Dual objective     =             1.981253
Iteration:  1293   Dual objective     =             2.035171
Iteration:  1549   Dual objective     =             2.065495
Iteration:  1767   Dual objective     =        404334.377060
Iteration:  1985   Dual objective     =        688544.393515
Iteration:  2186   Dual objective     =        694094.549623
Iteration:  2379   Dual objective     =        709377.076111
Iteration:  2701   Dual objective     =        710684.872195
Removing perturbation.

Dual crossover.
  Dual:  Fixing 11 variables.
Using devex.

Primal simplex solved model.


Primal simplex - Optimal:  Objective =  7.1094917527e+05
Solution time =    0.17 sec.  Iterations = 1746 (1123)
Deterministic time = 83.67 ticks  (486.44 ticks/sec)

CPLEX> Solution written to file 'C:\Users\llavin\Desktop\test919\logs\tmp0er0bnfk.cplex.sol'.
CPLEX> Exporting results... 
...storage offer mitigation file created
Converting model to MPEC...
...converted
NOTE: initial MIP solve with only storage competitive to get feasible solution
Solving...

Welcome to IBM(R) ILOG(R) CPLEX(R) Interactive Optimizer 12.9.0.0
  with Simplex, Mixed Integer & Barrier Optimizers
5725-A06 5725-A29 5724-Y48 5724-Y49 5724-Y54 5724-Y55 5655-Y21
Copyright IBM Corp. 1988, 2019.  All Rights Reserved.

Type 'help' for a list of available commands.
Type 'help' followed by a command name for more
information on commands.

CPLEX> Logfile 'cplex.log' closed.
Logfile 'C:\Users\llavin\Desktop\test919\logs\tmpq9n87949.cplex.log' open.
CPLEX> New value for parallel optimization mode: -1
CPLEX> New value for mixed integer optimality gap tolerance: 0.01
CPLEX> New value for integrality tolerance: 1e-09
CPLEX> New value for feasibility tolerance: 0.01
CPLEX> New value for deterministic time limit in ticks: 75000
CPLEX> Problem 'C:\Users\llavin\Desktop\test919\logs\tmp8uheq7pt.pyomo.lp' read.
Read time = 0.23 sec. (14.78 ticks)
CPLEX> Problem name         : C:\Users\llavin\Desktop\test919\logs\tmp8uheq7pt.pyomo.lp
Objective sense      : Maximize
Variables            :   53805  [Nneg: 1,  Box: 22000,  Free: 4464,
                                 Binary: 27340]
Objective nonzeros   :    8979
Linear constraints   :  123205  [Less: 41346,  Greater: 59096,  Equal: 22763]
  Nonzeros           :  291800
  RHS nonzeros       :   67466

Variables            : Min LB: -5000.000        Max UB: 1000000.       
Objective nonzeros   : Min   : 0.4083333        Max   : 722.0000       
Linear constraints   :
  Nonzeros           : Min   : 0.4083333        Max   : 1000000.       
  RHS nonzeros       : Min   : 0.4083333        Max   : 1000000.       
CPLEX> CPXPARAM_Parallel                                -1
CPXPARAM_Simplex_Tolerances_Feasibility          0.01
CPXPARAM_DetTimeLimit                            75000
CPXPARAM_MIP_Tolerances_MIPGap                   0.01
CPXPARAM_MIP_Tolerances_Integrality              1.0000000000000001e-09
Tried aggregator 3 times.
MIP Presolve eliminated 88733 rows and 19033 columns.
MIP Presolve added 3359 rows and 0 columns.
MIP Presolve modified 24729 coefficients.
Aggregator did 12944 substitutions.
Reduced MIP has 24887 rows, 21272 columns, and 71010 nonzeros.
Reduced MIP has 8376 binaries, 0 generals, 0 SOSs, and 0 indicators.
Presolve time = 0.30 sec. (175.90 ticks)
Probing fixed 399 vars, tightened 2848 bounds.
Probing time = 1.22 sec. (904.28 ticks)
Tried aggregator 2 times.
MIP Presolve eliminated 910 rows and 798 columns.
MIP Presolve modified 2191 coefficients.
Aggregator did 41 substitutions.
Reduced MIP has 23936 rows, 20433 columns, and 68269 nonzeros.
Reduced MIP has 7977 binaries, 0 generals, 0 SOSs, and 0 indicators.
Presolve time = 0.09 sec. (67.28 ticks)
Probing time = 0.05 sec. (16.09 ticks)
Clique table members: 6329.
MIP emphasis: balance optimality and feasibility.
MIP search method: dynamic search.
Parallel mode: opportunistic, using up to 32 threads.
Root relaxation solution time = 0.41 sec. (315.04 ticks)

        Nodes                                         Cuts/
   Node  Left     Objective  IInf  Best Integer    Best Bound    ItCnt     Gap

      0     0     9452.5314  2088                   9452.5314     7042         
      0     0     9452.5314    17                    Cuts: 37     7059         
      0     0     9452.5314    14                    Cuts: 10     7063         
      0     0     9452.5314    14                     Cuts: 3     7063         
      0    15    infeasible                       Impl Bds: 2     7235         
Elapsed time = 8.45 sec. (5225.61 ticks, tree = 0.02 MB, solutions = 0)
*    62+   32                         9081.7840     9215.3789             1.47%
*   190    29      integral     0     9207.5263     9215.3789     9463    0.09%

Clique cuts applied:  1
Implied bound cuts applied:  2
Flow cuts applied:  23
Gomory fractional cuts applied:  8

Root node processing (before b&c):
  Real time             =    7.49 sec. (5219.77 ticks)
Parallel b&c, 32 threads:
  Real time             =    1.98 sec. (290.10 ticks)
  Sync time (average)   =    0.78 sec.
  Wait time (average)   =    0.00 sec.
                          ------------
Total (root+branch&cut) =    9.47 sec. (5509.87 ticks)

Solution pool: 7 solutions saved.

MIP - Integer optimal, tolerance (0.01/1e-06):  Objective =  9.2075262714e+03
Current MIP best bound =  9.2140495039e+03 (gap = 6.52323, 0.07%)
Solution time =    9.48 sec.  Iterations = 9679  Nodes = 193 (11)
Deterministic time = 5510.03 ticks  (580.92 ticks/sec)

CPLEX> Incumbent solution written to file 'C:\Users\llavin\Desktop\test919\logs\tmpcwzrkkxq.cplex.sol'.
CPLEX> NOTE: no warmstart specified for MIP iteration, default behavior is true
NOTE: resolving with all competitive generators using storage-only solution to warmstart
Solving...

Welcome to IBM(R) ILOG(R) CPLEX(R) Interactive Optimizer 12.9.0.0
  with Simplex, Mixed Integer & Barrier Optimizers
5725-A06 5725-A29 5724-Y48 5724-Y49 5724-Y54 5724-Y55 5655-Y21
Copyright IBM Corp. 1988, 2019.  All Rights Reserved.

Type 'help' for a list of available commands.
Type 'help' followed by a command name for more
information on commands.

CPLEX> Logfile 'cplex.log' closed.
Logfile 'C:\Users\llavin\Desktop\test919\logs\tmphxn9loav.cplex.log' open.
CPLEX> New value for parallel optimization mode: -1
CPLEX> New value for mixed integer optimality gap tolerance: 0.01
CPLEX> New value for integrality tolerance: 1e-09
CPLEX> New value for feasibility tolerance: 0.01
CPLEX> New value for deterministic time limit in ticks: 75000
CPLEX> Problem 'C:\Users\llavin\Desktop\test919\logs\tmp23_d3sjw.pyomo.lp' read.
Read time = 0.25 sec. (14.81 ticks)
CPLEX> MIP start file 'C:\Users\llavin\Desktop\test919\logs\tmpwlp7lofp.cplex.mst' read.
CPLEX> Problem name         : C:\Users\llavin\Desktop\test919\logs\tmp23_d3sjw.pyomo.lp
Objective sense      : Maximize
Variables            :   54525  [Nneg: 1,  Box: 22720,  Free: 4464,
                                 Binary: 27340]
Objective nonzeros   :    9675
Linear constraints   :  123205  [Less: 41346,  Greater: 59096,  Equal: 22763]
  Nonzeros           :  291800
  RHS nonzeros       :   67466

Variables            : Min LB: -5000.000        Max UB: 1000000.       
Objective nonzeros   : Min   : 0.4083333        Max   : 722.0000       
Linear constraints   :
  Nonzeros           : Min   : 0.4083333        Max   : 1000000.       
  RHS nonzeros       : Min   : 0.4083333        Max   : 1000000.       
CPLEX> CPXPARAM_Parallel                                -1
CPXPARAM_Simplex_Tolerances_Feasibility          0.01
CPXPARAM_DetTimeLimit                            75000
CPXPARAM_MIP_Tolerances_MIPGap                   0.01
CPXPARAM_MIP_Tolerances_Integrality              1.0000000000000001e-09
Warning:  No solution found from 1 MIP starts.
Retaining values of one MIP start for possible repair.
Tried aggregator 3 times.
MIP Presolve eliminated 88733 rows and 19753 columns.
MIP Presolve added 3359 rows and 0 columns.
MIP Presolve modified 24729 coefficients.
Aggregator did 12944 substitutions.
Reduced MIP has 24887 rows, 21272 columns, and 71010 nonzeros.
Reduced MIP has 8376 binaries, 0 generals, 0 SOSs, and 0 indicators.
Presolve time = 0.28 sec. (176.27 ticks)
Probing fixed 399 vars, tightened 2848 bounds.
Probing time = 1.33 sec. (904.28 ticks)
Tried aggregator 2 times.
MIP Presolve eliminated 910 rows and 798 columns.
MIP Presolve modified 2191 coefficients.
Aggregator did 41 substitutions.
Reduced MIP has 23936 rows, 20433 columns, and 68269 nonzeros.
Reduced MIP has 7977 binaries, 0 generals, 0 SOSs, and 0 indicators.
Presolve time = 0.11 sec. (67.30 ticks)
Probing time = 0.05 sec. (16.09 ticks)
Clique table members: 6329.
MIP emphasis: balance optimality and feasibility.
MIP search method: dynamic search.
Parallel mode: opportunistic, using up to 32 threads.
Root relaxation solution time = 0.38 sec. (306.11 ticks)

        Nodes                                         Cuts/
   Node  Left     Objective  IInf  Best Integer    Best Bound    ItCnt     Gap

      0     0    14429.0584  2092                  14429.0584     6953         
      0     0    14429.0405    20                    Cuts: 13     6962         
      0     0    14429.0405    20                    Cuts: 11     6965         
Repair heuristic found nothing.
      0     2    14429.0405    13                     Cuts: 5     6965         
Elapsed time = 9.98 sec. (5401.64 ticks, tree = 0.02 MB, solutions = 0)
    530   243    14080.8239     6                  14176.1485     9467         
*   847   228      integral     0    14050.9752    14176.1485     8277    0.89%

Cover cuts applied:  3
Implied bound cuts applied:  2
Flow cuts applied:  8
Gomory fractional cuts applied:  3

Root node processing (before b&c):
  Real time             =    8.31 sec. (5365.69 ticks)
Parallel b&c, 32 threads:
  Real time             =    3.25 sec. (514.26 ticks)
  Sync time (average)   =    0.56 sec.
  Wait time (average)   =    0.00 sec.
                          ------------
Total (root+branch&cut) =   11.56 sec. (5879.95 ticks)

Solution pool: 1 solution saved.

MIP - Integer optimal, tolerance (0.01/1e-06):  Objective =  1.4050975211e+04
Current MIP best bound =  1.4176148479e+04 (gap = 125.173, 0.89%)
Solution time =   11.59 sec.  Iterations = 33509  Nodes = 965 (136)
Deterministic time = 5880.11 ticks  (507.17 ticks/sec)

CPLEX> Incumbent solution written to file 'C:\Users\llavin\Desktop\test919\logs\tmp6gqlk299.cplex.sol'.
CPLEX> Exporting results... 
